NAME: random-98-14307
TYPE: TSP
COMMENT: size=98 seed=14307
DIMENSION: 198
EDGE_WEIGHT_TYPE: EUC_2D
NODE_COORD_SECTION
+0 749 436
-0 749 436
+1 76 100
-1 577 882
+2 815 979
-2 638 798
+3 508 276
-3 701 455
+4 895 633
-4 85 352
+5 137 108
-5 41 982
+6 338 345
-6 588 661
+7 215 788
-7 898 694
+8 346 656
-8 113 19
+9 556 556
-9 587 825
+10 371 425
-10 318 786
+11 208 482
-11 704 858
+12 611 378
-12 305 373
+13 909 157
-13 496 276
+14 948 398
-14 534 919
+15 180 416
-15 801 460
+16 502 522
-16 810 450
+17 323 846
-17 25 902
+18 237 760
-18 942 230
+19 427 300
-19 57 90
+20 884 787
-20 234 504
+21 685 983
-21 384 462
+22 4 822
-22 324 607
+23 448 853
-23 185 121
+24 747 226
-24 575 87
+25 318 361
-25 874 699
+26 306 740
-26 779 495
+27 296 771
-27 767 782
+28 417 4
-28 412 77
+29 199 672
-29 601 182
+30 73 583
-30 184 687
+31 817 891
-31 245 206
+32 406 13
-32 764 192
+33 124 608
-33 676 138
+34 962 414
-34 197 848
+35 156 274
-35 34 506
+36 116 874
-36 717 399
+37 116 959
-37 618 836
+38 624 454
-38 529 167
+39 359 221
-39 64 299
+40 146 390
-40 448 561
+41 31 558
-41 193 51
+42 277 48
-42 610 468
+43 695 526
-43 756 908
+44 710 162
-44 273 171
+45 195 882
-45 773 610
+46 848 82
-46 138 754
+47 295 488
-47 134 190
+48 562 593
-48 864 327
+49 577 733
-49 58 358
+50 429 803
-50 545 434
+51 631 272
-51 101 211
+52 470 698
-52 374 902
+53 410 790
-53 142 791
+54 671 863
-54 310 244
+55 473 506
-55 149 228
+56 187 8
-56 174 191
+57 507 649
-57 668 669
+58 904 911
-58 164 585
+59 248 98
-59 752 222
+60 443 408
-60 349 962
+61 713 292
-61 314 697
+62 503 371
-62 932 102
+63 648 44
-63 655 171
+64 13 225
-64 425 296
+65 759 93
-65 19 917
+66 493 932
-66 405 235
+67 386 701
-67 885 443
+68 81 995
-68 554 518
+69 178 670
-69 382 758
+70 207 317
-70 710 330
+71 51 598
-71 692 643
+72 140 683
-72 566 971
+73 73 968
-73 955 611
+74 378 94
-74 456 642
+75 504 284
-75 444 248
+76 671 282
-76 781 175
+77 148 726
-77 815 862
+78 171 268
-78 394 783
+79 837 766
-79 425 869
+80 588 257
-80 747 350
+81 448 967
-81 416 621
+82 953 408
-82 982 499
+83 805 57
-83 130 844
+84 213 727
-84 922 825
+85 43 32
-85 441 294
+86 985 214
-86 623 132
+87 545 310
-87 185 84
+88 448 912
-88 567 629
+89 810 649
-89 553 692
+90 480 503
-90 338 648
+91 622 112
-91 671 870
+92 355 143
-92 148 181
+93 206 390
-93 553 155
+94 120 348
-94 164 686
+95 16 530
-95 673 545
+96 147 97
-96 483 800
+97 849 459
-97 937 952
+98 700 302
-98 848 939
PRECEDENCE_SECTION
+0 -0
+1 -1
+2 -2
+3 -3
+4 -4
+5 -5
+6 -6
+7 -7
+8 -8
+9 -9
+10 -10
+11 -11
+12 -12
+13 -13
+14 -14
+15 -15
+16 -16
+17 -17
+18 -18
+19 -19
+20 -20
+21 -21
+22 -22
+23 -23
+24 -24
+25 -25
+26 -26
+27 -27
+28 -28
+29 -29
+30 -30
+31 -31
+32 -32
+33 -33
+34 -34
+35 -35
+36 -36
+37 -37
+38 -38
+39 -39
+40 -40
+41 -41
+42 -42
+43 -43
+44 -44
+45 -45
+46 -46
+47 -47
+48 -48
+49 -49
+50 -50
+51 -51
+52 -52
+53 -53
+54 -54
+55 -55
+56 -56
+57 -57
+58 -58
+59 -59
+60 -60
+61 -61
+62 -62
+63 -63
+64 -64
+65 -65
+66 -66
+67 -67
+68 -68
+69 -69
+70 -70
+71 -71
+72 -72
+73 -73
+74 -74
+75 -75
+76 -76
+77 -77
+78 -78
+79 -79
+80 -80
+81 -81
+82 -82
+83 -83
+84 -84
+85 -85
+86 -86
+87 -87
+88 -88
+89 -89
+90 -90
+91 -91
+92 -92
+93 -93
+94 -94
+95 -95
+96 -96
+97 -97
+98 -98
EOF
